c FILE /home/rafael/Documents/HappySet/MIHS/inputs/happygen/output/graph_scale_free_k3_p0.5_v50_20241127_082419.txt
c SOURCE This is a scale-free graph formed for the happy graph colouring problem.
c DESCRIPTION It was generated using the problem generator of Rhyd Lewis
c
c GRAPH STATS
c Seed                             = -713463888
c Number of Nodes                  = 50
c Number of colours k              = 3
c Number of pre-assignments        = 25
c Number of links per new node     = 5
c Density                          = 0.191837
c 
c The degrees of nodes 1 to 50, respectively, are as follows 
c [25, 20, 20, 19, 18, 17, 15, 14, 14, 13, 13, 12, 12, 12, 11, 10, 10, 9, 9, 8, 8, 8, 8, 8, 8, 7, 
c  7, 7, 7, 7, 7, 7, 6, 6, 6, 6, 6, 6, 6, 6, 6, 6, 5, 5, 5, 5, 5, 5, 5, 5] 
c  
p edge 50 235 3
e 1 2
e 1 3
e 1 5
e 1 6
e 1 7
e 1 8
e 1 9
e 1 10
e 1 11
e 1 13
e 1 14
e 1 15
e 1 19
e 1 20
e 1 23
e 1 26
e 1 29
e 1 31
e 1 33
e 1 36
e 1 38
e 1 41
e 1 43
e 1 44
e 1 45
e 2 3
e 2 5
e 2 6
e 2 8
e 2 9
e 2 13
e 2 15
e 2 17
e 2 18
e 2 19
e 2 26
e 2 29
e 2 33
e 2 35
e 2 38
e 2 39
e 2 45
e 2 47
e 2 49
e 3 4
e 3 5
e 3 6
e 3 7
e 3 8
e 3 10
e 3 12
e 3 13
e 3 18
e 3 23
e 3 29
e 3 36
e 3 38
e 3 41
e 3 42
e 3 44
e 3 45
e 3 46
e 4 5
e 4 6
e 4 8
e 4 9
e 4 10
e 4 11
e 4 12
e 4 13
e 4 21
e 4 24
e 4 26
e 4 27
e 4 28
e 4 35
e 4 38
e 4 39
e 4 43
e 4 48
e 5 6
e 5 8
e 5 9
e 5 10
e 5 12
e 5 15
e 5 18
e 5 19
e 5 25
e 5 29
e 5 34
e 5 36
e 5 41
e 5 43
e 6 7
e 6 8
e 6 9
e 6 10
e 6 11
e 6 12
e 6 14
e 6 15
e 6 20
e 6 26
e 6 37
e 6 43
e 7 9
e 7 11
e 7 14
e 7 16
e 7 19
e 7 24
e 7 28
e 7 31
e 7 32
e 7 34
e 7 44
e 7 45
e 8 10
e 8 16
e 8 26
e 8 33
e 8 34
e 8 35
e 8 39
e 8 47
e 9 16
e 9 20
e 9 21
e 9 22
e 9 33
e 9 34
e 9 47
e 9 48
e 10 11
e 10 15
e 10 18
e 10 21
e 10 30
e 10 33
e 10 35
e 11 12
e 11 13
e 11 15
e 11 21
e 11 22
e 11 34
e 11 39
e 11 46
e 12 14
e 12 20
e 12 25
e 12 31
e 12 37
e 12 43
e 12 49
e 13 14
e 13 17
e 13 19
e 13 20
e 13 28
e 13 31
e 13 36
e 14 22
e 14 24
e 14 31
e 14 42
e 14 45
e 14 46
e 14 47
e 15 16
e 15 18
e 15 35
e 15 37
e 15 40
e 16 18
e 16 23
e 16 24
e 16 27
e 16 30
e 16 37
e 17 18
e 17 20
e 17 21
e 17 22
e 17 26
e 17 27
e 17 30
e 17 37
e 18 28
e 18 30
e 19 22
e 19 44
e 19 47
e 19 50
e 20 32
e 20 36
e 21 25
e 21 40
e 21 50
e 22 23
e 22 40
e 22 48
e 23 28
e 23 30
e 23 41
e 23 42
e 24 30
e 24 46
e 24 48
e 24 50
e 25 38
e 25 39
e 25 42
e 25 48
e 25 49
e 26 50
e 27 28
e 27 33
e 27 35
e 27 46
e 28 32
e 29 36
e 29 40
e 29 50
e 30 32
e 31 38
e 31 40
e 32 37
e 32 39
e 32 41
e 34 44
e 40 49
e 41 42
e 42 49
n 5 3
n 13 2
n 14 2
n 15 3
n 18 3
n 20 2
n 21 1
n 23 3
n 27 2
n 29 3
n 30 3
n 31 2
n 33 2
n 34 3
n 37 3
n 38 2
n 39 2
n 41 3
n 43 3
n 44 3
n 45 2
n 46 2
n 47 2
n 48 2
n 49 3
